\ENCODING=ISO-8859-1
\Problem name: 

Minimize
 obj1: 3 x_0_1 + x_0_2 + 5 x_0_3 + 7 x_0_4 + 3 x_0_5 + 5 x_0_6 + 7 x_0_7
       + 5 x_0_8 + 5 x_0_9 + 3 x_0_10 + 3 x_0_11 + x_0_12 + 7 x_0_13 + 3 x_0_14
       + 3 x_0_15 + 3 x_1_0 + 3 x_1_2 + 9 x_1_3 + 3 x_1_4 + 5 x_1_5 + 3 x_1_6
       + 5 x_1_7 + 3 x_1_8 + x_1_9 + 3 x_1_10 + x_1_11 + 3 x_1_12 + 5 x_1_13
       + 7 x_1_14 + 5 x_1_15 + x_2_0 + 3 x_2_1 + 5 x_2_3 + 7 x_2_4 + 5 x_2_5
       + 3 x_2_6 + 5 x_2_7 + 3 x_2_8 + 5 x_2_9 + 3 x_2_10 + x_2_11 + 3 x_2_12
       + 5 x_2_13 + 3 x_2_14 + 5 x_2_15 + 5 x_3_0 + 9 x_3_1 + 5 x_3_2
       + 12 x_3_4 + 3 x_3_5 + 5 x_3_6 + 7 x_3_7 + 9 x_3_8 + 11 x_3_9 + 9 x_3_10
       + 7 x_3_11 + 5 x_3_12 + 7 x_3_13 + x_3_14 + 7 x_3_15 + 7 x_4_0 + 3 x_4_1
       + 7 x_4_2 + 12 x_4_3 + 9 x_4_5 + 7 x_4_6 + 5 x_4_7 + 3 x_4_8 + x_4_9
       + 3 x_4_10 + 5 x_4_11 + 7 x_4_12 + 9 x_4_13 + 11 x_4_14 + 5 x_4_15
       + 3 x_5_0 + 5 x_5_1 + 5 x_5_2 + 3 x_5_3 + 9 x_5_4 + 9 x_5_6 + 11 x_5_7
       + 9 x_5_8 + 7 x_5_9 + 5 x_5_10 + 7 x_5_11 + x_5_12 + 11 x_5_13 + x_5_14
       + 3 x_5_15 + 5 x_6_0 + 3 x_6_1 + 3 x_6_2 + 5 x_6_3 + 7 x_6_4 + 9 x_6_5
       + x_6_7 + 3 x_6_8 + 5 x_6_9 + 7 x_6_10 + x_6_11 + 7 x_6_12 + x_6_13
       + 7 x_6_14 + 9 x_6_15 + 7 x_7_0 + 5 x_7_1 + 5 x_7_2 + 7 x_7_3 + 5 x_7_4
       + 11 x_7_5 + x_7_6 + x_7_8 + 3 x_7_9 + 9 x_7_10 + 3 x_7_11 + 9 x_7_12
       + 3 x_7_13 + 9 x_7_14 + 11 x_7_15 + 5 x_8_0 + 3 x_8_1 + 3 x_8_2
       + 9 x_8_3 + 3 x_8_4 + 9 x_8_5 + 3 x_8_6 + x_8_7 + x_8_9 + 7 x_8_10
       + x_8_11 + 7 x_8_12 + 5 x_8_13 + 7 x_8_14 + 9 x_8_15 + 5 x_9_0 + x_9_1
       + 5 x_9_2 + 11 x_9_3 + x_9_4 + 7 x_9_5 + 5 x_9_6 + 3 x_9_7 + x_9_8
       + 5 x_9_10 + 3 x_9_11 + 5 x_9_12 + 7 x_9_13 + 9 x_9_14 + 7 x_9_15
       + 3 x_10_0 + 3 x_10_1 + 3 x_10_2 + 9 x_10_3 + 3 x_10_4 + 5 x_10_5
       + 7 x_10_6 + 9 x_10_7 + 7 x_10_8 + 5 x_10_9 + 5 x_10_11 + 3 x_10_12
       + 9 x_10_13 + 7 x_10_14 + x_10_15 + 3 x_11_0 + x_11_1 + x_11_2
       + 7 x_11_3 + 5 x_11_4 + 7 x_11_5 + x_11_6 + 3 x_11_7 + x_11_8 + 3 x_11_9
       + 5 x_11_10 + 5 x_11_12 + 3 x_11_13 + 5 x_11_14 + 7 x_11_15 + x_12_0
       + 3 x_12_1 + 3 x_12_2 + 5 x_12_3 + 7 x_12_4 + x_12_5 + 7 x_12_6
       + 9 x_12_7 + 7 x_12_8 + 5 x_12_9 + 3 x_12_10 + 5 x_12_11 + 9 x_12_13
       + 3 x_12_14 + x_12_15 + 7 x_13_0 + 5 x_13_1 + 5 x_13_2 + 7 x_13_3
       + 9 x_13_4 + 11 x_13_5 + x_13_6 + 3 x_13_7 + 5 x_13_8 + 7 x_13_9
       + 9 x_13_10 + 3 x_13_11 + 9 x_13_12 + 9 x_13_14 + 11 x_13_15 + 3 x_14_0
       + 7 x_14_1 + 3 x_14_2 + x_14_3 + 11 x_14_4 + x_14_5 + 7 x_14_6
       + 9 x_14_7 + 7 x_14_8 + 9 x_14_9 + 7 x_14_10 + 5 x_14_11 + 3 x_14_12
       + 9 x_14_13 + 5 x_14_15 + 3 x_15_0 + 5 x_15_1 + 5 x_15_2 + 7 x_15_3
       + 5 x_15_4 + 3 x_15_5 + 9 x_15_6 + 11 x_15_7 + 9 x_15_8 + 7 x_15_9
       + x_15_10 + 7 x_15_11 + x_15_12 + 11 x_15_13 + 5 x_15_14
Subject To
 _entra_a_1#0:        x_0_1 + x_2_1 + x_3_1 + x_4_1 + x_5_1 + x_6_1 + x_7_1
                      + x_8_1 + x_9_1 + x_10_1 + x_11_1 + x_12_1 + x_13_1
                      + x_14_1 + x_15_1  = 1
 sale_de_1#1:         x_1_0 + x_1_2 + x_1_3 + x_1_4 + x_1_5 + x_1_6 + x_1_7
                      + x_1_8 + x_1_9 + x_1_10 + x_1_11 + x_1_12 + x_1_13
                      + x_1_14 + x_1_15  = 1
 _entra_a_2#2:        x_0_2 + x_1_2 + x_3_2 + x_4_2 + x_5_2 + x_6_2 + x_7_2
                      + x_8_2 + x_9_2 + x_10_2 + x_11_2 + x_12_2 + x_13_2
                      + x_14_2 + x_15_2  = 1
 sale_de_2#3:         x_2_0 + x_2_1 + x_2_3 + x_2_4 + x_2_5 + x_2_6 + x_2_7
                      + x_2_8 + x_2_9 + x_2_10 + x_2_11 + x_2_12 + x_2_13
                      + x_2_14 + x_2_15  = 1
 _entra_a_3#4:        x_0_3 + x_1_3 + x_2_3 + x_4_3 + x_5_3 + x_6_3 + x_7_3
                      + x_8_3 + x_9_3 + x_10_3 + x_11_3 + x_12_3 + x_13_3
                      + x_14_3 + x_15_3  = 1
 sale_de_3#5:         x_3_0 + x_3_1 + x_3_2 + x_3_4 + x_3_5 + x_3_6 + x_3_7
                      + x_3_8 + x_3_9 + x_3_10 + x_3_11 + x_3_12 + x_3_13
                      + x_3_14 + x_3_15  = 1
 _entra_a_4#6:        x_0_4 + x_1_4 + x_2_4 + x_3_4 + x_5_4 + x_6_4 + x_7_4
                      + x_8_4 + x_9_4 + x_10_4 + x_11_4 + x_12_4 + x_13_4
                      + x_14_4 + x_15_4  = 1
 sale_de_4#7:         x_4_0 + x_4_1 + x_4_2 + x_4_3 + x_4_5 + x_4_6 + x_4_7
                      + x_4_8 + x_4_9 + x_4_10 + x_4_11 + x_4_12 + x_4_13
                      + x_4_14 + x_4_15  = 1
 _entra_a_5#8:        x_0_5 + x_1_5 + x_2_5 + x_3_5 + x_4_5 + x_6_5 + x_7_5
                      + x_8_5 + x_9_5 + x_10_5 + x_11_5 + x_12_5 + x_13_5
                      + x_14_5 + x_15_5  = 1
 sale_de_5#9:         x_5_0 + x_5_1 + x_5_2 + x_5_3 + x_5_4 + x_5_6 + x_5_7
                      + x_5_8 + x_5_9 + x_5_10 + x_5_11 + x_5_12 + x_5_13
                      + x_5_14 + x_5_15  = 1
 _entra_a_6#10:       x_0_6 + x_1_6 + x_2_6 + x_3_6 + x_4_6 + x_5_6 + x_7_6
                      + x_8_6 + x_9_6 + x_10_6 + x_11_6 + x_12_6 + x_13_6
                      + x_14_6 + x_15_6  = 1
 sale_de_6#11:        x_6_0 + x_6_1 + x_6_2 + x_6_3 + x_6_4 + x_6_5 + x_6_7
                      + x_6_8 + x_6_9 + x_6_10 + x_6_11 + x_6_12 + x_6_13
                      + x_6_14 + x_6_15  = 1
 _entra_a_7#12:       x_0_7 + x_1_7 + x_2_7 + x_3_7 + x_4_7 + x_5_7 + x_6_7
                      + x_8_7 + x_9_7 + x_10_7 + x_11_7 + x_12_7 + x_13_7
                      + x_14_7 + x_15_7  = 1
 sale_de_7#13:        x_7_0 + x_7_1 + x_7_2 + x_7_3 + x_7_4 + x_7_5 + x_7_6
                      + x_7_8 + x_7_9 + x_7_10 + x_7_11 + x_7_12 + x_7_13
                      + x_7_14 + x_7_15  = 1
 _entra_a_8#14:       x_0_8 + x_1_8 + x_2_8 + x_3_8 + x_4_8 + x_5_8 + x_6_8
                      + x_7_8 + x_9_8 + x_10_8 + x_11_8 + x_12_8 + x_13_8
                      + x_14_8 + x_15_8  = 1
 sale_de_8#15:        x_8_0 + x_8_1 + x_8_2 + x_8_3 + x_8_4 + x_8_5 + x_8_6
                      + x_8_7 + x_8_9 + x_8_10 + x_8_11 + x_8_12 + x_8_13
                      + x_8_14 + x_8_15  = 1
 _entra_a_9#16:       x_0_9 + x_1_9 + x_2_9 + x_3_9 + x_4_9 + x_5_9 + x_6_9
                      + x_7_9 + x_8_9 + x_10_9 + x_11_9 + x_12_9 + x_13_9
                      + x_14_9 + x_15_9  = 1
 sale_de_9#17:        x_9_0 + x_9_1 + x_9_2 + x_9_3 + x_9_4 + x_9_5 + x_9_6
                      + x_9_7 + x_9_8 + x_9_10 + x_9_11 + x_9_12 + x_9_13
                      + x_9_14 + x_9_15  = 1
 _entra_a_10#18:      x_0_10 + x_1_10 + x_2_10 + x_3_10 + x_4_10 + x_5_10
                      + x_6_10 + x_7_10 + x_8_10 + x_9_10 + x_11_10 + x_12_10
                      + x_13_10 + x_14_10 + x_15_10  = 1
 sale_de_10#19:       x_10_0 + x_10_1 + x_10_2 + x_10_3 + x_10_4 + x_10_5
                      + x_10_6 + x_10_7 + x_10_8 + x_10_9 + x_10_11 + x_10_12
                      + x_10_13 + x_10_14 + x_10_15  = 1
 _entra_a_11#20:      x_0_11 + x_1_11 + x_2_11 + x_3_11 + x_4_11 + x_5_11
                      + x_6_11 + x_7_11 + x_8_11 + x_9_11 + x_10_11 + x_12_11
                      + x_13_11 + x_14_11 + x_15_11  = 1
 sale_de_11#21:       x_11_0 + x_11_1 + x_11_2 + x_11_3 + x_11_4 + x_11_5
                      + x_11_6 + x_11_7 + x_11_8 + x_11_9 + x_11_10 + x_11_12
                      + x_11_13 + x_11_14 + x_11_15  = 1
 _entra_a_12#22:      x_0_12 + x_1_12 + x_2_12 + x_3_12 + x_4_12 + x_5_12
                      + x_6_12 + x_7_12 + x_8_12 + x_9_12 + x_10_12 + x_11_12
                      + x_13_12 + x_14_12 + x_15_12  = 1
 sale_de_12#23:       x_12_0 + x_12_1 + x_12_2 + x_12_3 + x_12_4 + x_12_5
                      + x_12_6 + x_12_7 + x_12_8 + x_12_9 + x_12_10 + x_12_11
                      + x_12_13 + x_12_14 + x_12_15  = 1
 _entra_a_13#24:      x_0_13 + x_1_13 + x_2_13 + x_3_13 + x_4_13 + x_5_13
                      + x_6_13 + x_7_13 + x_8_13 + x_9_13 + x_10_13 + x_11_13
                      + x_12_13 + x_14_13 + x_15_13  = 1
 sale_de_13#25:       x_13_0 + x_13_1 + x_13_2 + x_13_3 + x_13_4 + x_13_5
                      + x_13_6 + x_13_7 + x_13_8 + x_13_9 + x_13_10 + x_13_11
                      + x_13_12 + x_13_14 + x_13_15  = 1
 _entra_a_14#26:      x_0_14 + x_1_14 + x_2_14 + x_3_14 + x_4_14 + x_5_14
                      + x_6_14 + x_7_14 + x_8_14 + x_9_14 + x_10_14 + x_11_14
                      + x_12_14 + x_13_14 + x_15_14  = 1
 sale_de_14#27:       x_14_0 + x_14_1 + x_14_2 + x_14_3 + x_14_4 + x_14_5
                      + x_14_6 + x_14_7 + x_14_8 + x_14_9 + x_14_10 + x_14_11
                      + x_14_12 + x_14_13 + x_14_15  = 1
 _entra_a_15#28:      x_0_15 + x_1_15 + x_2_15 + x_3_15 + x_4_15 + x_5_15
                      + x_6_15 + x_7_15 + x_8_15 + x_9_15 + x_10_15 + x_11_15
                      + x_12_15 + x_13_15 + x_14_15  = 1
 sale_de_15#29:       x_15_0 + x_15_1 + x_15_2 + x_15_3 + x_15_4 + x_15_5
                      + x_15_6 + x_15_7 + x_15_8 + x_15_9 + x_15_10 + x_15_11
                      + x_15_12 + x_15_13 + x_15_14  = 1
 sale_deposito#30:    x_0_1 + x_0_2 + x_0_3 + x_0_4 + x_0_5 + x_0_6 + x_0_7
                      + x_0_8 + x_0_9 + x_0_10 + x_0_11 + x_0_12 + x_0_13
                      + x_0_14 + x_0_15  = 1
 regresa_deposito#31: x_1_0 + x_2_0 + x_3_0 + x_4_0 + x_5_0 + x_6_0 + x_7_0
                      + x_8_0 + x_9_0 + x_10_0 + x_11_0 + x_12_0 + x_13_0
                      + x_14_0 + x_15_0  = 1
 mtz_1_2#32:          15 x_1_2 + u_1 - u_2 <= 14
 mtz_1_3#33:          15 x_1_3 + u_1 - u_3 <= 14
 mtz_1_4#34:          15 x_1_4 + u_1 - u_4 <= 14
 mtz_1_5#35:          15 x_1_5 + u_1 - u_5 <= 14
 mtz_1_6#36:          15 x_1_6 + u_1 - u_6 <= 14
 mtz_1_7#37:          15 x_1_7 + u_1 - u_7 <= 14
 mtz_1_8#38:          15 x_1_8 + u_1 - u_8 <= 14
 mtz_1_9#39:          15 x_1_9 + u_1 - u_9 <= 14
 mtz_1_10#40:         15 x_1_10 + u_1 - u_10 <= 14
 mtz_1_11#41:         15 x_1_11 + u_1 - u_11 <= 14
 mtz_1_12#42:         15 x_1_12 + u_1 - u_12 <= 14
 mtz_1_13#43:         15 x_1_13 + u_1 - u_13 <= 14
 mtz_1_14#44:         15 x_1_14 + u_1 - u_14 <= 14
 mtz_1_15#45:         15 x_1_15 + u_1 - u_15 <= 14
 mtz_2_1#46:          15 x_2_1 - u_1 + u_2 <= 14
 mtz_2_3#47:          15 x_2_3 + u_2 - u_3 <= 14
 mtz_2_4#48:          15 x_2_4 + u_2 - u_4 <= 14
 mtz_2_5#49:          15 x_2_5 + u_2 - u_5 <= 14
 mtz_2_6#50:          15 x_2_6 + u_2 - u_6 <= 14
 mtz_2_7#51:          15 x_2_7 + u_2 - u_7 <= 14
 mtz_2_8#52:          15 x_2_8 + u_2 - u_8 <= 14
 mtz_2_9#53:          15 x_2_9 + u_2 - u_9 <= 14
 mtz_2_10#54:         15 x_2_10 + u_2 - u_10 <= 14
 mtz_2_11#55:         15 x_2_11 + u_2 - u_11 <= 14
 mtz_2_12#56:         15 x_2_12 + u_2 - u_12 <= 14
 mtz_2_13#57:         15 x_2_13 + u_2 - u_13 <= 14
 mtz_2_14#58:         15 x_2_14 + u_2 - u_14 <= 14
 mtz_2_15#59:         15 x_2_15 + u_2 - u_15 <= 14
 mtz_3_1#60:          15 x_3_1 - u_1 + u_3 <= 14
 mtz_3_2#61:          15 x_3_2 - u_2 + u_3 <= 14
 mtz_3_4#62:          15 x_3_4 + u_3 - u_4 <= 14
 mtz_3_5#63:          15 x_3_5 + u_3 - u_5 <= 14
 mtz_3_6#64:          15 x_3_6 + u_3 - u_6 <= 14
 mtz_3_7#65:          15 x_3_7 + u_3 - u_7 <= 14
 mtz_3_8#66:          15 x_3_8 + u_3 - u_8 <= 14
 mtz_3_9#67:          15 x_3_9 + u_3 - u_9 <= 14
 mtz_3_10#68:         15 x_3_10 + u_3 - u_10 <= 14
 mtz_3_11#69:         15 x_3_11 + u_3 - u_11 <= 14
 mtz_3_12#70:         15 x_3_12 + u_3 - u_12 <= 14
 mtz_3_13#71:         15 x_3_13 + u_3 - u_13 <= 14
 mtz_3_14#72:         15 x_3_14 + u_3 - u_14 <= 14
 mtz_3_15#73:         15 x_3_15 + u_3 - u_15 <= 14
 mtz_4_1#74:          15 x_4_1 - u_1 + u_4 <= 14
 mtz_4_2#75:          15 x_4_2 - u_2 + u_4 <= 14
 mtz_4_3#76:          15 x_4_3 - u_3 + u_4 <= 14
 mtz_4_5#77:          15 x_4_5 + u_4 - u_5 <= 14
 mtz_4_6#78:          15 x_4_6 + u_4 - u_6 <= 14
 mtz_4_7#79:          15 x_4_7 + u_4 - u_7 <= 14
 mtz_4_8#80:          15 x_4_8 + u_4 - u_8 <= 14
 mtz_4_9#81:          15 x_4_9 + u_4 - u_9 <= 14
 mtz_4_10#82:         15 x_4_10 + u_4 - u_10 <= 14
 mtz_4_11#83:         15 x_4_11 + u_4 - u_11 <= 14
 mtz_4_12#84:         15 x_4_12 + u_4 - u_12 <= 14
 mtz_4_13#85:         15 x_4_13 + u_4 - u_13 <= 14
 mtz_4_14#86:         15 x_4_14 + u_4 - u_14 <= 14
 mtz_4_15#87:         15 x_4_15 + u_4 - u_15 <= 14
 mtz_5_1#88:          15 x_5_1 - u_1 + u_5 <= 14
 mtz_5_2#89:          15 x_5_2 - u_2 + u_5 <= 14
 mtz_5_3#90:          15 x_5_3 - u_3 + u_5 <= 14
 mtz_5_4#91:          15 x_5_4 - u_4 + u_5 <= 14
 mtz_5_6#92:          15 x_5_6 + u_5 - u_6 <= 14
 mtz_5_7#93:          15 x_5_7 + u_5 - u_7 <= 14
 mtz_5_8#94:          15 x_5_8 + u_5 - u_8 <= 14
 mtz_5_9#95:          15 x_5_9 + u_5 - u_9 <= 14
 mtz_5_10#96:         15 x_5_10 + u_5 - u_10 <= 14
 mtz_5_11#97:         15 x_5_11 + u_5 - u_11 <= 14
 mtz_5_12#98:         15 x_5_12 + u_5 - u_12 <= 14
 mtz_5_13#99:         15 x_5_13 + u_5 - u_13 <= 14
 mtz_5_14#100:        15 x_5_14 + u_5 - u_14 <= 14
 mtz_5_15#101:        15 x_5_15 + u_5 - u_15 <= 14
 mtz_6_1#102:         15 x_6_1 - u_1 + u_6 <= 14
 mtz_6_2#103:         15 x_6_2 - u_2 + u_6 <= 14
 mtz_6_3#104:         15 x_6_3 - u_3 + u_6 <= 14
 mtz_6_4#105:         15 x_6_4 - u_4 + u_6 <= 14
 mtz_6_5#106:         15 x_6_5 - u_5 + u_6 <= 14
 mtz_6_7#107:         15 x_6_7 + u_6 - u_7 <= 14
 mtz_6_8#108:         15 x_6_8 + u_6 - u_8 <= 14
 mtz_6_9#109:         15 x_6_9 + u_6 - u_9 <= 14
 mtz_6_10#110:        15 x_6_10 + u_6 - u_10 <= 14
 mtz_6_11#111:        15 x_6_11 + u_6 - u_11 <= 14
 mtz_6_12#112:        15 x_6_12 + u_6 - u_12 <= 14
 mtz_6_13#113:        15 x_6_13 + u_6 - u_13 <= 14
 mtz_6_14#114:        15 x_6_14 + u_6 - u_14 <= 14
 mtz_6_15#115:        15 x_6_15 + u_6 - u_15 <= 14
 mtz_7_1#116:         15 x_7_1 - u_1 + u_7 <= 14
 mtz_7_2#117:         15 x_7_2 - u_2 + u_7 <= 14
 mtz_7_3#118:         15 x_7_3 - u_3 + u_7 <= 14
 mtz_7_4#119:         15 x_7_4 - u_4 + u_7 <= 14
 mtz_7_5#120:         15 x_7_5 - u_5 + u_7 <= 14
 mtz_7_6#121:         15 x_7_6 - u_6 + u_7 <= 14
 mtz_7_8#122:         15 x_7_8 + u_7 - u_8 <= 14
 mtz_7_9#123:         15 x_7_9 + u_7 - u_9 <= 14
 mtz_7_10#124:        15 x_7_10 + u_7 - u_10 <= 14
 mtz_7_11#125:        15 x_7_11 + u_7 - u_11 <= 14
 mtz_7_12#126:        15 x_7_12 + u_7 - u_12 <= 14
 mtz_7_13#127:        15 x_7_13 + u_7 - u_13 <= 14
 mtz_7_14#128:        15 x_7_14 + u_7 - u_14 <= 14
 mtz_7_15#129:        15 x_7_15 + u_7 - u_15 <= 14
 mtz_8_1#130:         15 x_8_1 - u_1 + u_8 <= 14
 mtz_8_2#131:         15 x_8_2 - u_2 + u_8 <= 14
 mtz_8_3#132:         15 x_8_3 - u_3 + u_8 <= 14
 mtz_8_4#133:         15 x_8_4 - u_4 + u_8 <= 14
 mtz_8_5#134:         15 x_8_5 - u_5 + u_8 <= 14
 mtz_8_6#135:         15 x_8_6 - u_6 + u_8 <= 14
 mtz_8_7#136:         15 x_8_7 - u_7 + u_8 <= 14
 mtz_8_9#137:         15 x_8_9 + u_8 - u_9 <= 14
 mtz_8_10#138:        15 x_8_10 + u_8 - u_10 <= 14
 mtz_8_11#139:        15 x_8_11 + u_8 - u_11 <= 14
 mtz_8_12#140:        15 x_8_12 + u_8 - u_12 <= 14
 mtz_8_13#141:        15 x_8_13 + u_8 - u_13 <= 14
 mtz_8_14#142:        15 x_8_14 + u_8 - u_14 <= 14
 mtz_8_15#143:        15 x_8_15 + u_8 - u_15 <= 14
 mtz_9_1#144:         15 x_9_1 - u_1 + u_9 <= 14
 mtz_9_2#145:         15 x_9_2 - u_2 + u_9 <= 14
 mtz_9_3#146:         15 x_9_3 - u_3 + u_9 <= 14
 mtz_9_4#147:         15 x_9_4 - u_4 + u_9 <= 14
 mtz_9_5#148:         15 x_9_5 - u_5 + u_9 <= 14
 mtz_9_6#149:         15 x_9_6 - u_6 + u_9 <= 14
 mtz_9_7#150:         15 x_9_7 - u_7 + u_9 <= 14
 mtz_9_8#151:         15 x_9_8 - u_8 + u_9 <= 14
 mtz_9_10#152:        15 x_9_10 + u_9 - u_10 <= 14
 mtz_9_11#153:        15 x_9_11 + u_9 - u_11 <= 14
 mtz_9_12#154:        15 x_9_12 + u_9 - u_12 <= 14
 mtz_9_13#155:        15 x_9_13 + u_9 - u_13 <= 14
 mtz_9_14#156:        15 x_9_14 + u_9 - u_14 <= 14
 mtz_9_15#157:        15 x_9_15 + u_9 - u_15 <= 14
 mtz_10_1#158:        15 x_10_1 - u_1 + u_10 <= 14
 mtz_10_2#159:        15 x_10_2 - u_2 + u_10 <= 14
 mtz_10_3#160:        15 x_10_3 - u_3 + u_10 <= 14
 mtz_10_4#161:        15 x_10_4 - u_4 + u_10 <= 14
 mtz_10_5#162:        15 x_10_5 - u_5 + u_10 <= 14
 mtz_10_6#163:        15 x_10_6 - u_6 + u_10 <= 14
 mtz_10_7#164:        15 x_10_7 - u_7 + u_10 <= 14
 mtz_10_8#165:        15 x_10_8 - u_8 + u_10 <= 14
 mtz_10_9#166:        15 x_10_9 - u_9 + u_10 <= 14
 mtz_10_11#167:       15 x_10_11 + u_10 - u_11 <= 14
 mtz_10_12#168:       15 x_10_12 + u_10 - u_12 <= 14
 mtz_10_13#169:       15 x_10_13 + u_10 - u_13 <= 14
 mtz_10_14#170:       15 x_10_14 + u_10 - u_14 <= 14
 mtz_10_15#171:       15 x_10_15 + u_10 - u_15 <= 14
 mtz_11_1#172:        15 x_11_1 - u_1 + u_11 <= 14
 mtz_11_2#173:        15 x_11_2 - u_2 + u_11 <= 14
 mtz_11_3#174:        15 x_11_3 - u_3 + u_11 <= 14
 mtz_11_4#175:        15 x_11_4 - u_4 + u_11 <= 14
 mtz_11_5#176:        15 x_11_5 - u_5 + u_11 <= 14
 mtz_11_6#177:        15 x_11_6 - u_6 + u_11 <= 14
 mtz_11_7#178:        15 x_11_7 - u_7 + u_11 <= 14
 mtz_11_8#179:        15 x_11_8 - u_8 + u_11 <= 14
 mtz_11_9#180:        15 x_11_9 - u_9 + u_11 <= 14
 mtz_11_10#181:       15 x_11_10 - u_10 + u_11 <= 14
 mtz_11_12#182:       15 x_11_12 + u_11 - u_12 <= 14
 mtz_11_13#183:       15 x_11_13 + u_11 - u_13 <= 14
 mtz_11_14#184:       15 x_11_14 + u_11 - u_14 <= 14
 mtz_11_15#185:       15 x_11_15 + u_11 - u_15 <= 14
 mtz_12_1#186:        15 x_12_1 - u_1 + u_12 <= 14
 mtz_12_2#187:        15 x_12_2 - u_2 + u_12 <= 14
 mtz_12_3#188:        15 x_12_3 - u_3 + u_12 <= 14
 mtz_12_4#189:        15 x_12_4 - u_4 + u_12 <= 14
 mtz_12_5#190:        15 x_12_5 - u_5 + u_12 <= 14
 mtz_12_6#191:        15 x_12_6 - u_6 + u_12 <= 14
 mtz_12_7#192:        15 x_12_7 - u_7 + u_12 <= 14
 mtz_12_8#193:        15 x_12_8 - u_8 + u_12 <= 14
 mtz_12_9#194:        15 x_12_9 - u_9 + u_12 <= 14
 mtz_12_10#195:       15 x_12_10 - u_10 + u_12 <= 14
 mtz_12_11#196:       15 x_12_11 - u_11 + u_12 <= 14
 mtz_12_13#197:       15 x_12_13 + u_12 - u_13 <= 14
 mtz_12_14#198:       15 x_12_14 + u_12 - u_14 <= 14
 mtz_12_15#199:       15 x_12_15 + u_12 - u_15 <= 14
 mtz_13_1#200:        15 x_13_1 - u_1 + u_13 <= 14
 mtz_13_2#201:        15 x_13_2 - u_2 + u_13 <= 14
 mtz_13_3#202:        15 x_13_3 - u_3 + u_13 <= 14
 mtz_13_4#203:        15 x_13_4 - u_4 + u_13 <= 14
 mtz_13_5#204:        15 x_13_5 - u_5 + u_13 <= 14
 mtz_13_6#205:        15 x_13_6 - u_6 + u_13 <= 14
 mtz_13_7#206:        15 x_13_7 - u_7 + u_13 <= 14
 mtz_13_8#207:        15 x_13_8 - u_8 + u_13 <= 14
 mtz_13_9#208:        15 x_13_9 - u_9 + u_13 <= 14
 mtz_13_10#209:       15 x_13_10 - u_10 + u_13 <= 14
 mtz_13_11#210:       15 x_13_11 - u_11 + u_13 <= 14
 mtz_13_12#211:       15 x_13_12 - u_12 + u_13 <= 14
 mtz_13_14#212:       15 x_13_14 + u_13 - u_14 <= 14
 mtz_13_15#213:       15 x_13_15 + u_13 - u_15 <= 14
 mtz_14_1#214:        15 x_14_1 - u_1 + u_14 <= 14
 mtz_14_2#215:        15 x_14_2 - u_2 + u_14 <= 14
 mtz_14_3#216:        15 x_14_3 - u_3 + u_14 <= 14
 mtz_14_4#217:        15 x_14_4 - u_4 + u_14 <= 14
 mtz_14_5#218:        15 x_14_5 - u_5 + u_14 <= 14
 mtz_14_6#219:        15 x_14_6 - u_6 + u_14 <= 14
 mtz_14_7#220:        15 x_14_7 - u_7 + u_14 <= 14
 mtz_14_8#221:        15 x_14_8 - u_8 + u_14 <= 14
 mtz_14_9#222:        15 x_14_9 - u_9 + u_14 <= 14
 mtz_14_10#223:       15 x_14_10 - u_10 + u_14 <= 14
 mtz_14_11#224:       15 x_14_11 - u_11 + u_14 <= 14
 mtz_14_12#225:       15 x_14_12 - u_12 + u_14 <= 14
 mtz_14_13#226:       15 x_14_13 - u_13 + u_14 <= 14
 mtz_14_15#227:       15 x_14_15 + u_14 - u_15 <= 14
 mtz_15_1#228:        15 x_15_1 - u_1 + u_15 <= 14
 mtz_15_2#229:        15 x_15_2 - u_2 + u_15 <= 14
 mtz_15_3#230:        15 x_15_3 - u_3 + u_15 <= 14
 mtz_15_4#231:        15 x_15_4 - u_4 + u_15 <= 14
 mtz_15_5#232:        15 x_15_5 - u_5 + u_15 <= 14
 mtz_15_6#233:        15 x_15_6 - u_6 + u_15 <= 14
 mtz_15_7#234:        15 x_15_7 - u_7 + u_15 <= 14
 mtz_15_8#235:        15 x_15_8 - u_8 + u_15 <= 14
 mtz_15_9#236:        15 x_15_9 - u_9 + u_15 <= 14
 mtz_15_10#237:       15 x_15_10 - u_10 + u_15 <= 14
 mtz_15_11#238:       15 x_15_11 - u_11 + u_15 <= 14
 mtz_15_12#239:       15 x_15_12 - u_12 + u_15 <= 14
 mtz_15_13#240:       15 x_15_13 - u_13 + u_15 <= 14
 mtz_15_14#241:       15 x_15_14 - u_14 + u_15 <= 14
Bounds
 0 <= x_0_1 <= 1
 0 <= x_0_2 <= 1
 0 <= x_0_3 <= 1
 0 <= x_0_4 <= 1
 0 <= x_0_5 <= 1
 0 <= x_0_6 <= 1
 0 <= x_0_7 <= 1
 0 <= x_0_8 <= 1
 0 <= x_0_9 <= 1
 0 <= x_0_10 <= 1
 0 <= x_0_11 <= 1
 0 <= x_0_12 <= 1
 0 <= x_0_13 <= 1
 0 <= x_0_14 <= 1
 0 <= x_0_15 <= 1
 0 <= x_1_0 <= 1
 0 <= x_1_2 <= 1
 0 <= x_1_3 <= 1
 0 <= x_1_4 <= 1
 0 <= x_1_5 <= 1
 0 <= x_1_6 <= 1
 0 <= x_1_7 <= 1
 0 <= x_1_8 <= 1
 0 <= x_1_9 <= 1
 0 <= x_1_10 <= 1
 0 <= x_1_11 <= 1
 0 <= x_1_12 <= 1
 0 <= x_1_13 <= 1
 0 <= x_1_14 <= 1
 0 <= x_1_15 <= 1
 0 <= x_2_0 <= 1
 0 <= x_2_1 <= 1
 0 <= x_2_3 <= 1
 0 <= x_2_4 <= 1
 0 <= x_2_5 <= 1
 0 <= x_2_6 <= 1
 0 <= x_2_7 <= 1
 0 <= x_2_8 <= 1
 0 <= x_2_9 <= 1
 0 <= x_2_10 <= 1
 0 <= x_2_11 <= 1
 0 <= x_2_12 <= 1
 0 <= x_2_13 <= 1
 0 <= x_2_14 <= 1
 0 <= x_2_15 <= 1
 0 <= x_3_0 <= 1
 0 <= x_3_1 <= 1
 0 <= x_3_2 <= 1
 0 <= x_3_4 <= 1
 0 <= x_3_5 <= 1
 0 <= x_3_6 <= 1
 0 <= x_3_7 <= 1
 0 <= x_3_8 <= 1
 0 <= x_3_9 <= 1
 0 <= x_3_10 <= 1
 0 <= x_3_11 <= 1
 0 <= x_3_12 <= 1
 0 <= x_3_13 <= 1
 0 <= x_3_14 <= 1
 0 <= x_3_15 <= 1
 0 <= x_4_0 <= 1
 0 <= x_4_1 <= 1
 0 <= x_4_2 <= 1
 0 <= x_4_3 <= 1
 0 <= x_4_5 <= 1
 0 <= x_4_6 <= 1
 0 <= x_4_7 <= 1
 0 <= x_4_8 <= 1
 0 <= x_4_9 <= 1
 0 <= x_4_10 <= 1
 0 <= x_4_11 <= 1
 0 <= x_4_12 <= 1
 0 <= x_4_13 <= 1
 0 <= x_4_14 <= 1
 0 <= x_4_15 <= 1
 0 <= x_5_0 <= 1
 0 <= x_5_1 <= 1
 0 <= x_5_2 <= 1
 0 <= x_5_3 <= 1
 0 <= x_5_4 <= 1
 0 <= x_5_6 <= 1
 0 <= x_5_7 <= 1
 0 <= x_5_8 <= 1
 0 <= x_5_9 <= 1
 0 <= x_5_10 <= 1
 0 <= x_5_11 <= 1
 0 <= x_5_12 <= 1
 0 <= x_5_13 <= 1
 0 <= x_5_14 <= 1
 0 <= x_5_15 <= 1
 0 <= x_6_0 <= 1
 0 <= x_6_1 <= 1
 0 <= x_6_2 <= 1
 0 <= x_6_3 <= 1
 0 <= x_6_4 <= 1
 0 <= x_6_5 <= 1
 0 <= x_6_7 <= 1
 0 <= x_6_8 <= 1
 0 <= x_6_9 <= 1
 0 <= x_6_10 <= 1
 0 <= x_6_11 <= 1
 0 <= x_6_12 <= 1
 0 <= x_6_13 <= 1
 0 <= x_6_14 <= 1
 0 <= x_6_15 <= 1
 0 <= x_7_0 <= 1
 0 <= x_7_1 <= 1
 0 <= x_7_2 <= 1
 0 <= x_7_3 <= 1
 0 <= x_7_4 <= 1
 0 <= x_7_5 <= 1
 0 <= x_7_6 <= 1
 0 <= x_7_8 <= 1
 0 <= x_7_9 <= 1
 0 <= x_7_10 <= 1
 0 <= x_7_11 <= 1
 0 <= x_7_12 <= 1
 0 <= x_7_13 <= 1
 0 <= x_7_14 <= 1
 0 <= x_7_15 <= 1
 0 <= x_8_0 <= 1
 0 <= x_8_1 <= 1
 0 <= x_8_2 <= 1
 0 <= x_8_3 <= 1
 0 <= x_8_4 <= 1
 0 <= x_8_5 <= 1
 0 <= x_8_6 <= 1
 0 <= x_8_7 <= 1
 0 <= x_8_9 <= 1
 0 <= x_8_10 <= 1
 0 <= x_8_11 <= 1
 0 <= x_8_12 <= 1
 0 <= x_8_13 <= 1
 0 <= x_8_14 <= 1
 0 <= x_8_15 <= 1
 0 <= x_9_0 <= 1
 0 <= x_9_1 <= 1
 0 <= x_9_2 <= 1
 0 <= x_9_3 <= 1
 0 <= x_9_4 <= 1
 0 <= x_9_5 <= 1
 0 <= x_9_6 <= 1
 0 <= x_9_7 <= 1
 0 <= x_9_8 <= 1
 0 <= x_9_10 <= 1
 0 <= x_9_11 <= 1
 0 <= x_9_12 <= 1
 0 <= x_9_13 <= 1
 0 <= x_9_14 <= 1
 0 <= x_9_15 <= 1
 0 <= x_10_0 <= 1
 0 <= x_10_1 <= 1
 0 <= x_10_2 <= 1
 0 <= x_10_3 <= 1
 0 <= x_10_4 <= 1
 0 <= x_10_5 <= 1
 0 <= x_10_6 <= 1
 0 <= x_10_7 <= 1
 0 <= x_10_8 <= 1
 0 <= x_10_9 <= 1
 0 <= x_10_11 <= 1
 0 <= x_10_12 <= 1
 0 <= x_10_13 <= 1
 0 <= x_10_14 <= 1
 0 <= x_10_15 <= 1
 0 <= x_11_0 <= 1
 0 <= x_11_1 <= 1
 0 <= x_11_2 <= 1
 0 <= x_11_3 <= 1
 0 <= x_11_4 <= 1
 0 <= x_11_5 <= 1
 0 <= x_11_6 <= 1
 0 <= x_11_7 <= 1
 0 <= x_11_8 <= 1
 0 <= x_11_9 <= 1
 0 <= x_11_10 <= 1
 0 <= x_11_12 <= 1
 0 <= x_11_13 <= 1
 0 <= x_11_14 <= 1
 0 <= x_11_15 <= 1
 0 <= x_12_0 <= 1
 0 <= x_12_1 <= 1
 0 <= x_12_2 <= 1
 0 <= x_12_3 <= 1
 0 <= x_12_4 <= 1
 0 <= x_12_5 <= 1
 0 <= x_12_6 <= 1
 0 <= x_12_7 <= 1
 0 <= x_12_8 <= 1
 0 <= x_12_9 <= 1
 0 <= x_12_10 <= 1
 0 <= x_12_11 <= 1
 0 <= x_12_13 <= 1
 0 <= x_12_14 <= 1
 0 <= x_12_15 <= 1
 0 <= x_13_0 <= 1
 0 <= x_13_1 <= 1
 0 <= x_13_2 <= 1
 0 <= x_13_3 <= 1
 0 <= x_13_4 <= 1
 0 <= x_13_5 <= 1
 0 <= x_13_6 <= 1
 0 <= x_13_7 <= 1
 0 <= x_13_8 <= 1
 0 <= x_13_9 <= 1
 0 <= x_13_10 <= 1
 0 <= x_13_11 <= 1
 0 <= x_13_12 <= 1
 0 <= x_13_14 <= 1
 0 <= x_13_15 <= 1
 0 <= x_14_0 <= 1
 0 <= x_14_1 <= 1
 0 <= x_14_2 <= 1
 0 <= x_14_3 <= 1
 0 <= x_14_4 <= 1
 0 <= x_14_5 <= 1
 0 <= x_14_6 <= 1
 0 <= x_14_7 <= 1
 0 <= x_14_8 <= 1
 0 <= x_14_9 <= 1
 0 <= x_14_10 <= 1
 0 <= x_14_11 <= 1
 0 <= x_14_12 <= 1
 0 <= x_14_13 <= 1
 0 <= x_14_15 <= 1
 0 <= x_15_0 <= 1
 0 <= x_15_1 <= 1
 0 <= x_15_2 <= 1
 0 <= x_15_3 <= 1
 0 <= x_15_4 <= 1
 0 <= x_15_5 <= 1
 0 <= x_15_6 <= 1
 0 <= x_15_7 <= 1
 0 <= x_15_8 <= 1
 0 <= x_15_9 <= 1
 0 <= x_15_10 <= 1
 0 <= x_15_11 <= 1
 0 <= x_15_12 <= 1
 0 <= x_15_13 <= 1
 0 <= x_15_14 <= 1
 0 <= u_1 <= 15
 0 <= u_2 <= 15
 0 <= u_3 <= 15
 0 <= u_4 <= 15
 0 <= u_5 <= 15
 0 <= u_6 <= 15
 0 <= u_7 <= 15
 0 <= u_8 <= 15
 0 <= u_9 <= 15
 0 <= u_10 <= 15
 0 <= u_11 <= 15
 0 <= u_12 <= 15
 0 <= u_13 <= 15
 0 <= u_14 <= 15
 0 <= u_15 <= 15
Binaries
 x_0_1  x_0_2  x_0_3  x_0_4  x_0_5  x_0_6  x_0_7  x_0_8  x_0_9  x_0_10  x_0_11 
 x_0_12  x_0_13  x_0_14  x_0_15  x_1_0  x_1_2  x_1_3  x_1_4  x_1_5  x_1_6 
 x_1_7  x_1_8  x_1_9  x_1_10  x_1_11  x_1_12  x_1_13  x_1_14  x_1_15  x_2_0 
 x_2_1  x_2_3  x_2_4  x_2_5  x_2_6  x_2_7  x_2_8  x_2_9  x_2_10  x_2_11 
 x_2_12  x_2_13  x_2_14  x_2_15  x_3_0  x_3_1  x_3_2  x_3_4  x_3_5  x_3_6 
 x_3_7  x_3_8  x_3_9  x_3_10  x_3_11  x_3_12  x_3_13  x_3_14  x_3_15  x_4_0 
 x_4_1  x_4_2  x_4_3  x_4_5  x_4_6  x_4_7  x_4_8  x_4_9  x_4_10  x_4_11 
 x_4_12  x_4_13  x_4_14  x_4_15  x_5_0  x_5_1  x_5_2  x_5_3  x_5_4  x_5_6 
 x_5_7  x_5_8  x_5_9  x_5_10  x_5_11  x_5_12  x_5_13  x_5_14  x_5_15  x_6_0 
 x_6_1  x_6_2  x_6_3  x_6_4  x_6_5  x_6_7  x_6_8  x_6_9  x_6_10  x_6_11 
 x_6_12  x_6_13  x_6_14  x_6_15  x_7_0  x_7_1  x_7_2  x_7_3  x_7_4  x_7_5 
 x_7_6  x_7_8  x_7_9  x_7_10  x_7_11  x_7_12  x_7_13  x_7_14  x_7_15  x_8_0 
 x_8_1  x_8_2  x_8_3  x_8_4  x_8_5  x_8_6  x_8_7  x_8_9  x_8_10  x_8_11 
 x_8_12  x_8_13  x_8_14  x_8_15  x_9_0  x_9_1  x_9_2  x_9_3  x_9_4  x_9_5 
 x_9_6  x_9_7  x_9_8  x_9_10  x_9_11  x_9_12  x_9_13  x_9_14  x_9_15  x_10_0 
 x_10_1  x_10_2  x_10_3  x_10_4  x_10_5  x_10_6  x_10_7  x_10_8  x_10_9 
 x_10_11  x_10_12  x_10_13  x_10_14  x_10_15  x_11_0  x_11_1  x_11_2  x_11_3 
 x_11_4  x_11_5  x_11_6  x_11_7  x_11_8  x_11_9  x_11_10  x_11_12  x_11_13 
 x_11_14  x_11_15  x_12_0  x_12_1  x_12_2  x_12_3  x_12_4  x_12_5  x_12_6 
 x_12_7  x_12_8  x_12_9  x_12_10  x_12_11  x_12_13  x_12_14  x_12_15  x_13_0 
 x_13_1  x_13_2  x_13_3  x_13_4  x_13_5  x_13_6  x_13_7  x_13_8  x_13_9 
 x_13_10  x_13_11  x_13_12  x_13_14  x_13_15  x_14_0  x_14_1  x_14_2  x_14_3 
 x_14_4  x_14_5  x_14_6  x_14_7  x_14_8  x_14_9  x_14_10  x_14_11  x_14_12 
 x_14_13  x_14_15  x_15_0  x_15_1  x_15_2  x_15_3  x_15_4  x_15_5  x_15_6 
 x_15_7  x_15_8  x_15_9  x_15_10  x_15_11  x_15_12  x_15_13  x_15_14 
End
